c2_10_8

VEHICLE
NUMBER   CAPACITY
250     700

CUSTOMER
CUST NO. XCOORD.  YCOORD.  DEMAND  READY TIME DUE DATE  SERVICE TIME

0   250    250     0     0    3914     0
957 425 99 20 231 871 90
345 420 95 30 230 870 90
988 426 85 10 387 1027 90
588 432 105 10 2952 3592 90
355 447 88 20 2723 3363 90
592 430 86 20 2526 3166 90
871 448 94 20 2914 3554 90
13 448 103 30 2938 3578 90
699 447 102 10 2938 3578 90
450 425 85 10 296 936 90
190 446 86 10 2816 3456 90
661 440 81 20 2425 3065 90
530 425 87 20 239 879 90
757 425 118 10 219 859 90
883 432 87 10 2618 3258 90
